% Auto-generated by scripts/generate_dzn.py
% problem_type   = nonogram
% instance       = nonogram_66
% source_json    = instances_json/0_low_blowup/nonogram_66.json
% blowup         = 1.1829268292682926
% representation = DFA

mode = 0;

height = 5;
width = 10;
Q = 10;
S = 2;
row_q0 = [1, 1, 1, 1, 1];
row_F = [{9}, {8}, {6}, {9}, {6}];
col_q0 = [1, 1, 1, 1, 1, 1, 1, 1, 1, 1];
col_F = [{5}, {4}, {5}, {6}, {5}, {2}, {4}, {4}, {3}, {6}];
row_d_dfa = array3d(1..5, 1..10, 1..2, [
  % k = 1
    1, 2,
    3, 10,
    3, 4,
    10, 5,
    6, 10,
    6, 7,
    10, 8,
    10, 9,
    9, 10,
    10, 10,

  % k = 2
    1, 2,
    9, 3,
    4, 9,
    4, 5,
    6, 9,
    6, 7,
    9, 8,
    8, 9,
    9, 9,
    0, 0,

  % k = 3
    1, 2,
    7, 3,
    7, 4,
    7, 5,
    7, 6,
    6, 7,
    7, 7,
    0, 0,
    0, 0,
    0, 0,

  % k = 4
    1, 2,
    3, 10,
    3, 4,
    10, 5,
    10, 6,
    10, 7,
    8, 10,
    8, 9,
    9, 10,
    10, 10,

  % k = 5
    1, 2,
    7, 3,
    7, 4,
    5, 7,
    5, 6,
    6, 7,
    7, 7,
    0, 0,
    0, 0,
    0, 0
]);
row_d_nfa = array3d(1..5, 1..10, 1..2, [
  % k = 1
    {}, {},
    {}, {},
    {}, {},
    {}, {},
    {}, {},
    {}, {},
    {}, {},
    {}, {},
    {}, {},
    {}, {},

  % k = 2
    {}, {},
    {}, {},
    {}, {},
    {}, {},
    {}, {},
    {}, {},
    {}, {},
    {}, {},
    {}, {},
    {}, {},

  % k = 3
    {}, {},
    {}, {},
    {}, {},
    {}, {},
    {}, {},
    {}, {},
    {}, {},
    {}, {},
    {}, {},
    {}, {},

  % k = 4
    {}, {},
    {}, {},
    {}, {},
    {}, {},
    {}, {},
    {}, {},
    {}, {},
    {}, {},
    {}, {},
    {}, {},

  % k = 5
    {}, {},
    {}, {},
    {}, {},
    {}, {},
    {}, {},
    {}, {},
    {}, {},
    {}, {},
    {}, {},
    {}, {}
]);
col_d_dfa = array3d(1..10, 1..10, 1..2, [
  % k = 1
    1, 2,
    3, 6,
    3, 4,
    6, 5,
    5, 6,
    6, 6,
    0, 0,
    0, 0,
    0, 0,
    0, 0,

  % k = 2
    1, 2,
    3, 5,
    3, 4,
    4, 5,
    5, 5,
    0, 0,
    0, 0,
    0, 0,
    0, 0,
    0, 0,

  % k = 3
    1, 2,
    6, 3,
    4, 6,
    4, 5,
    5, 6,
    6, 6,
    0, 0,
    0, 0,
    0, 0,
    0, 0,

  % k = 4
    1, 2,
    7, 3,
    7, 4,
    5, 7,
    5, 6,
    6, 7,
    7, 7,
    0, 0,
    0, 0,
    0, 0,

  % k = 5
    1, 2,
    3, 6,
    3, 4,
    6, 5,
    5, 6,
    6, 6,
    0, 0,
    0, 0,
    0, 0,
    0, 0,

  % k = 6
    1, 2,
    2, 3,
    3, 3,
    0, 0,
    0, 0,
    0, 0,
    0, 0,
    0, 0,
    0, 0,
    0, 0,

  % k = 7
    1, 2,
    3, 5,
    3, 4,
    4, 5,
    5, 5,
    0, 0,
    0, 0,
    0, 0,
    0, 0,
    0, 0,

  % k = 8
    1, 2,
    3, 5,
    3, 4,
    4, 5,
    5, 5,
    0, 0,
    0, 0,
    0, 0,
    0, 0,
    0, 0,

  % k = 9
    1, 2,
    4, 3,
    3, 4,
    4, 4,
    0, 0,
    0, 0,
    0, 0,
    0, 0,
    0, 0,
    0, 0,

  % k = 10
    1, 2,
    7, 3,
    4, 7,
    4, 5,
    7, 6,
    6, 7,
    7, 7,
    0, 0,
    0, 0,
    0, 0
]);
col_d_nfa = array3d(1..10, 1..10, 1..2, [
  % k = 1
    {}, {},
    {}, {},
    {}, {},
    {}, {},
    {}, {},
    {}, {},
    {}, {},
    {}, {},
    {}, {},
    {}, {},

  % k = 2
    {}, {},
    {}, {},
    {}, {},
    {}, {},
    {}, {},
    {}, {},
    {}, {},
    {}, {},
    {}, {},
    {}, {},

  % k = 3
    {}, {},
    {}, {},
    {}, {},
    {}, {},
    {}, {},
    {}, {},
    {}, {},
    {}, {},
    {}, {},
    {}, {},

  % k = 4
    {}, {},
    {}, {},
    {}, {},
    {}, {},
    {}, {},
    {}, {},
    {}, {},
    {}, {},
    {}, {},
    {}, {},

  % k = 5
    {}, {},
    {}, {},
    {}, {},
    {}, {},
    {}, {},
    {}, {},
    {}, {},
    {}, {},
    {}, {},
    {}, {},

  % k = 6
    {}, {},
    {}, {},
    {}, {},
    {}, {},
    {}, {},
    {}, {},
    {}, {},
    {}, {},
    {}, {},
    {}, {},

  % k = 7
    {}, {},
    {}, {},
    {}, {},
    {}, {},
    {}, {},
    {}, {},
    {}, {},
    {}, {},
    {}, {},
    {}, {},

  % k = 8
    {}, {},
    {}, {},
    {}, {},
    {}, {},
    {}, {},
    {}, {},
    {}, {},
    {}, {},
    {}, {},
    {}, {},

  % k = 9
    {}, {},
    {}, {},
    {}, {},
    {}, {},
    {}, {},
    {}, {},
    {}, {},
    {}, {},
    {}, {},
    {}, {},

  % k = 10
    {}, {},
    {}, {},
    {}, {},
    {}, {},
    {}, {},
    {}, {},
    {}, {},
    {}, {},
    {}, {},
    {}, {}
]);
